60
1 0 38
2 0 26
2 1 63
3 0 39
3 1 31
3 2 6
4 0 9
4 1 76
4 2 36
4 3 32
5 0 18
5 1 61
5 2 18
5 3 63
5 4 35
6 0 86
6 1 95
6 2 61
6 3 58
6 4 96
6 5 45
7 0 46
7 1 48
7 2 48
7 3 71
7 4 50
7 5 99
7 6 12
8 0 42
8 1 84
8 2 47
8 3 89
8 4 82
8 5 53
8 6 50
8 7 33
9 0 65
9 1 70
9 2 60
9 3 12
9 4 46
9 5 78
9 6 85
9 7 61
9 8 39
10 0 67
10 1 4
10 2 78
10 3 6
10 4 37
10 5 70
10 6 92
10 7 30
10 8 66
10 9 38
11 0 3
11 1 95
11 2 67
11 3 88
11 4 54
11 5 70
11 6 41
11 7 31
11 8 9
11 9 94
11 10 78
12 0 22
12 1 30
12 2 2
12 3 43
12 4 13
12 5 83
12 6 27
12 7 62
12 8 31
12 9 20
12 10 89
12 11 92
13 0 49
13 1 2
13 2 41
13 3 31
13 4 88
13 5 83
13 6 35
13 7 21
13 8 91
13 9 52
13 10 34
13 11 24
13 12 14
14 0 8
14 1 76
14 2 6
14 3 62
14 4 18
14 5 69
14 6 30
14 7 61
14 8 77
14 9 77
14 10 51
14 11 11
14 12 77
14 13 20
15 0 85
15 1 7
15 2 51
15 3 99
15 4 59
15 5 94
15 6 47
15 7 21
15 8 92
15 9 95
15 10 49
15 11 84
15 12 57
15 13 39
15 14 52
16 0 46
16 1 10
16 2 73
16 3 54
16 4 94
16 5 13
16 6 31
16 7 33
16 8 77
16 9 60
16 10 94
16 11 2
16 12 74
16 13 99
16 14 77
16 15 80
17 0 17
17 1 6
17 2 8
17 3 10
17 4 76
17 5 50
17 6 98
17 7 14
17 8 90
17 9 58
17 10 13
17 11 78
17 12 95
17 13 68
17 14 97
17 15 81
17 16 79
18 0 38
18 1 7
18 2 35
18 3 74
18 4 25
18 5 57
18 6 99
18 7 56
18 8 79
18 9 90
18 10 59
18 11 21
18 12 5
18 13 10
18 14 22
18 15 50
18 16 81
18 17 65
19 0 36
19 1 89
19 2 48
19 3 38
19 4 54
19 5 3
19 6 98
19 7 1
19 8 98
19 9 75
19 10 37
19 11 48
19 12 78
19 13 70
19 14 91
19 15 86
19 16 98
19 17 78
19 18 82
20 0 78
20 1 33
20 2 4
20 3 2
20 4 43
20 5 65
20 6 76
20 7 48
20 8 76
20 9 12
20 10 81
20 11 3
20 12 36
20 13 95
20 14 63
20 15 79
20 16 7
20 17 11
20 18 20
20 19 56
21 0 40
21 1 24
21 2 7
21 3 71
21 4 35
21 5 84
21 6 30
21 7 56
21 8 4
21 9 33
21 10 65
21 11 32
21 12 39
21 13 64
21 14 64
21 15 85
21 16 71
21 17 39
21 18 18
21 19 2
21 20 96
22 0 84
22 1 95
22 2 41
22 3 99
22 4 14
22 5 66
22 6 53
22 7 1
22 8 60
22 9 93
22 10 88
22 11 30
22 12 94
22 13 42
22 14 47
22 15 55
22 16 85
22 17 38
22 18 73
22 19 67
22 20 19
22 21 87
23 0 80
23 1 84
23 2 76
23 3 20
23 4 69
23 5 1
23 6 49
23 7 42
23 8 82
23 9 38
23 10 32
23 11 85
23 12 86
23 13 36
23 14 28
23 15 3
23 16 3
23 17 12
23 18 50
23 19 60
23 20 3
23 21 72
23 22 14
24 0 88
24 1 50
24 2 44
24 3 46
24 4 28
24 5 66
24 6 84
24 7 56
24 8 74
24 9 22
24 10 47
24 11 43
24 12 87
24 13 17
24 14 59
24 15 48
24 16 46
24 17 79
24 18 6
24 19 57
24 20 50
24 21 86
24 22 31
24 23 17
25 0 6
25 1 24
25 2 14
25 3 43
25 4 33
25 5 5
25 6 67
25 7 93
25 8 4
25 9 17
25 10 75
25 11 59
25 12 84
25 13 91
25 14 59
25 15 14
25 16 31
25 17 90
25 18 45
25 19 76
25 20 98
25 21 59
25 22 66
25 23 15
25 24 20
26 0 6
26 1 35
26 2 100
26 3 82
26 4 89
26 5 55
26 6 49
26 7 21
26 8 20
26 9 59
26 10 57
26 11 92
26 12 33
26 13 1
26 14 89
26 15 88
26 16 72
26 17 41
26 18 80
26 19 27
26 20 76
26 21 81
26 22 68
26 23 22
26 24 91
26 25 61
27 0 58
27 1 99
27 2 28
27 3 23
27 4 96
27 5 40
27 6 37
27 7 77
27 8 90
27 9 54
27 10 84
27 11 62
27 12 19
27 13 6
27 14 37
27 15 66
27 16 3
27 17 70
27 18 2
27 19 40
27 20 49
27 21 67
27 22 70
27 23 49
27 24 69
27 25 7
27 26 56
28 0 13
28 1 42
28 2 65
28 3 49
28 4 45
28 5 89
28 6 36
28 7 5
28 8 5
28 9 46
28 10 60
28 11 45
28 12 93
28 13 82
28 14 15
28 15 41
28 16 74
28 17 88
28 18 13
28 19 9
28 20 8
28 21 29
28 22 50
28 23 43
28 24 16
28 25 45
28 26 90
28 27 39
29 0 13
29 1 32
29 2 95
29 3 19
29 4 84
29 5 48
29 6 23
29 7 43
29 8 96
29 9 24
29 10 49
29 11 57
29 12 51
29 13 67
29 14 97
29 15 46
29 16 44
29 17 93
29 18 80
29 19 51
29 20 74
29 21 28
29 22 86
29 23 97
29 24 9
29 25 58
29 26 50
29 27 43
29 28 21
30 0 20
30 1 17
30 2 18
30 3 40
30 4 63
30 5 72
30 6 46
30 7 82
30 8 27
30 9 92
30 10 48
30 11 55
30 12 16
30 13 60
30 14 78
30 15 53
30 16 51
30 17 25
30 18 37
30 19 83
30 20 50
30 21 19
30 22 68
30 23 100
30 24 60
30 25 45
30 26 29
30 27 28
30 28 31
30 29 19
31 0 87
31 1 95
31 2 25
31 3 10
31 4 99
31 5 23
31 6 80
31 7 18
31 8 50
31 9 40
31 10 89
31 11 92
31 12 81
31 13 1
31 14 53
31 15 65
31 16 28
31 17 48
31 18 20
31 19 68
31 20 39
31 21 42
31 22 27
31 23 46
31 24 49
31 25 29
31 26 93
31 27 84
31 28 39
31 29 56
31 30 45
32 0 23
32 1 100
32 2 21
32 3 61
32 4 25
32 5 66
32 6 34
32 7 72
32 8 7
32 9 16
32 10 28
32 11 54
32 12 59
32 13 33
32 14 32
32 15 2
32 16 23
32 17 79
32 18 11
32 19 66
32 20 85
32 21 36
32 22 26
32 23 85
32 24 14
32 25 95
32 26 74
32 27 70
32 28 54
32 29 14
32 30 1
32 31 97
33 0 37
33 1 82
33 2 11
33 3 22
33 4 100
33 5 39
33 6 9
33 7 33
33 8 93
33 9 45
33 10 47
33 11 94
33 12 35
33 13 15
33 14 64
33 15 49
33 16 49
33 17 50
33 18 39
33 19 91
33 20 65
33 21 17
33 22 3
33 23 14
33 24 5
33 25 90
33 26 69
33 27 1
33 28 60
33 29 26
33 30 82
33 31 21
33 32 39
34 0 56
34 1 98
34 2 31
34 3 46
34 4 10
34 5 43
34 6 9
34 7 4
34 8 90
34 9 16
34 10 72
34 11 60
34 12 100
34 13 18
34 14 38
34 15 4
34 16 48
34 17 49
34 18 50
34 19 17
34 20 15
34 21 93
34 22 73
34 23 15
34 24 43
34 25 65
34 26 10
34 27 48
34 28 80
34 29 19
34 30 31
34 31 95
34 32 3
34 33 28
35 0 83
35 1 41
35 2 87
35 3 81
35 4 33
35 5 33
35 6 3
35 7 62
35 8 82
35 9 57
35 10 58
35 11 10
35 12 12
35 13 84
35 14 14
35 15 65
35 16 90
35 17 59
35 18 48
35 19 61
35 20 30
35 21 52
35 22 30
35 23 16
35 24 75
35 25 96
35 26 49
35 27 22
35 28 61
35 29 53
35 30 5
35 31 49
35 32 86
35 33 16
35 34 34
36 0 3
36 1 70
36 2 23
36 3 67
36 4 15
36 5 91
36 6 32
36 7 1
36 8 43
36 9 55
36 10 12
36 11 58
36 12 6
36 13 90
36 14 8
36 15 61
36 16 4
36 17 6
36 18 23
36 19 32
36 20 73
36 21 62
36 22 5
36 23 20
36 24 86
36 25 6
36 26 34
36 27 84
36 28 3
36 29 2
36 30 50
36 31 13
36 32 22
36 33 53
36 34 64
36 35 45
37 0 95
37 1 82
37 2 57
37 3 25
37 4 97
37 5 34
37 6 27
37 7 1
37 8 83
37 9 3
37 10 75
37 11 64
37 12 45
37 13 11
37 14 22
37 15 76
37 16 72
37 17 76
37 18 92
37 19 29
37 20 75
37 21 61
37 22 20
37 23 47
37 24 16
37 25 85
37 26 57
37 27 18
37 28 72
37 29 29
37 30 83
37 31 17
37 32 2
37 33 88
37 34 63
37 35 43
37 36 22
38 0 34
38 1 79
38 2 17
38 3 85
38 4 97
38 5 52
38 6 76
38 7 25
38 8 86
38 9 28
38 10 78
38 11 28
38 12 93
38 13 76
38 14 5
38 15 19
38 16 64
38 17 48
38 18 21
38 19 88
38 20 25
38 21 77
38 22 27
38 23 93
38 24 97
38 25 31
38 26 17
38 27 11
38 28 39
38 29 30
38 30 35
38 31 24
38 32 4
38 33 14
38 34 72
38 35 71
38 36 93
38 37 2
39 0 64
39 1 88
39 2 46
39 3 88
39 4 80
39 5 21
39 6 6
39 7 72
39 8 13
39 9 99
39 10 35
39 11 97
39 12 96
39 13 84
39 14 87
39 15 71
39 16 30
39 17 32
39 18 46
39 19 74
39 20 81
39 21 57
39 22 99
39 23 81
39 24 83
39 25 59
39 26 95
39 27 67
39 28 67
39 29 60
39 30 8
39 31 52
39 32 81
39 33 75
39 34 19
39 35 12
39 36 95
39 37 90
39 38 61
40 0 80
40 1 87
40 2 44
40 3 17
40 4 83
40 5 68
40 6 24
40 7 50
40 8 6
40 9 80
40 10 25
40 11 2
40 12 87
40 13 83
40 14 31
40 15 9
40 16 68
40 17 13
40 18 23
40 19 3
40 20 56
40 21 76
40 22 23
40 23 96
40 24 83
40 25 13
40 26 16
40 27 84
40 28 63
40 29 42
40 30 24
40 31 2
40 32 78
40 33 79
40 34 15
40 35 16
40 36 44
40 37 74
40 38 78
40 39 50
41 0 47
41 1 29
41 2 92
41 3 60
41 4 44
41 5 76
41 6 66
41 7 25
41 8 65
41 9 35
41 10 41
41 11 5
41 12 65
41 13 87
41 14 71
41 15 86
41 16 19
41 17 12
41 18 19
41 19 17
41 20 46
41 21 93
41 22 49
41 23 9
41 24 9
41 25 94
41 26 100
41 27 45
41 28 37
41 29 40
41 30 48
41 31 21
41 32 51
41 33 67
41 34 25
41 35 35
41 36 5
41 37 32
41 38 31
41 39 62
41 40 57
42 0 85
42 1 63
42 2 7
42 3 43
42 4 45
42 5 50
42 6 24
42 7 21
42 8 42
42 9 59
42 10 28
42 11 1
42 12 9
42 13 24
42 14 39
42 15 75
42 16 34
42 17 3
42 18 58
42 19 23
42 20 14
42 21 68
42 22 35
42 23 55
42 24 67
42 25 81
42 26 93
42 27 11
42 28 87
42 29 20
42 30 30
42 31 35
42 32 65
42 33 45
42 34 76
42 35 87
42 36 90
42 37 26
42 38 17
42 39 73
42 40 19
42 41 72
43 0 1
43 1 90
43 2 82
43 3 27
43 4 69
43 5 25
43 6 34
43 7 36
43 8 97
43 9 60
43 10 12
43 11 87
43 12 38
43 13 64
43 14 21
43 15 72
43 16 98
43 17 71
43 18 76
43 19 42
43 20 80
43 21 80
43 22 82
43 23 50
43 24 86
43 25 41
43 26 98
43 27 82
43 28 67
43 29 78
43 30 49
43 31 43
43 32 39
43 33 92
43 34 75
43 35 46
43 36 33
43 37 47
43 38 11
43 39 8
43 40 31
43 41 96
43 42 56
44 0 66
44 1 100
44 2 48
44 3 85
44 4 54
44 5 48
44 6 54
44 7 76
44 8 15
44 9 40
44 10 60
44 11 92
44 12 31
44 13 61
44 14 77
44 15 22
44 16 2
44 17 16
44 18 42
44 19 72
44 20 98
44 21 99
44 22 92
44 23 66
44 24 72
44 25 64
44 26 59
44 27 94
44 28 15
44 29 94
44 30 55
44 31 17
44 32 63
44 33 48
44 34 27
44 35 16
44 36 21
44 37 21
44 38 83
44 39 47
44 40 51
44 41 59
44 42 16
44 43 37
45 0 27
45 1 6
45 2 93
45 3 35
45 4 66
45 5 87
45 6 72
45 7 98
45 8 93
45 9 36
45 10 70
45 11 83
45 12 91
45 13 35
45 14 100
45 15 73
45 16 33
45 17 27
45 18 30
45 19 53
45 20 27
45 21 8
45 22 65
45 23 16
45 24 91
45 25 10
45 26 19
45 27 74
45 28 53
45 29 45
45 30 55
45 31 90
45 32 48
45 33 59
45 34 2
45 35 67
45 36 41
45 37 22
45 38 61
45 39 53
45 40 9
45 41 43
45 42 93
45 43 50
45 44 68
46 0 100
46 1 17
46 2 38
46 3 8
46 4 22
46 5 76
46 6 51
46 7 88
46 8 49
46 9 57
46 10 69
46 11 100
46 12 68
46 13 57
46 14 2
46 15 100
46 16 7
46 17 39
46 18 89
46 19 72
46 20 25
46 21 20
46 22 46
46 23 67
46 24 24
46 25 82
46 26 17
46 27 36
46 28 92
46 29 6
46 30 23
46 31 44
46 32 34
46 33 60
46 34 14
46 35 45
46 36 58
46 37 93
46 38 67
46 39 48
46 40 19
46 41 24
46 42 85
46 43 93
46 44 46
46 45 15
47 0 84
47 1 41
47 2 97
47 3 79
47 4 85
47 5 30
47 6 16
47 7 60
47 8 41
47 9 54
47 10 98
47 11 75
47 12 64
47 13 68
47 14 73
47 15 21
47 16 34
47 17 23
47 18 74
47 19 71
47 20 9
47 21 1
47 22 41
47 23 28
47 24 67
47 25 69
47 26 89
47 27 2
47 28 38
47 29 12
47 30 34
47 31 23
47 32 18
47 33 84
47 34 46
47 35 20
47 36 78
47 37 1
47 38 95
47 39 19
47 40 2
47 41 67
47 42 91
47 43 43
47 44 3
47 45 94
47 46 39
48 0 10
48 1 30
48 2 67
48 3 59
48 4 74
48 5 52
48 6 72
48 7 52
48 8 55
48 9 69
48 10 69
48 11 94
48 12 30
48 13 7
48 14 87
48 15 4
48 16 15
48 17 85
48 18 89
48 19 11
48 20 37
48 21 59
48 22 99
48 23 17
48 24 74
48 25 98
48 26 21
48 27 34
48 28 37
48 29 20
48 30 85
48 31 38
48 32 94
48 33 15
48 34 81
48 35 71
48 36 68
48 37 31
48 38 88
48 39 77
48 40 71
48 41 80
48 42 5
48 43 70
48 44 46
48 45 20
48 46 31
48 47 47
49 0 23
49 1 95
49 2 56
49 3 11
49 4 23
49 5 51
49 6 65
49 7 65
49 8 65
49 9 60
49 10 67
49 11 80
49 12 50
49 13 17
49 14 89
49 15 64
49 16 33
49 17 89
49 18 6
49 19 75
49 20 12
49 21 37
49 22 1
49 23 58
49 24 86
49 25 41
49 26 73
49 27 96
49 28 71
49 29 89
49 30 24
49 31 15
49 32 59
49 33 24
49 34 16
49 35 67
49 36 80
49 37 46
49 38 60
49 39 95
49 40 94
49 41 23
49 42 88
49 43 47
49 44 7
49 45 53
49 46 19
49 47 91
49 48 19
50 0 89
50 1 11
50 2 63
50 3 22
50 4 3
50 5 77
50 6 25
50 7 15
50 8 63
50 9 88
50 10 39
50 11 5
50 12 56
50 13 9
50 14 63
50 15 16
50 16 56
50 17 23
50 18 49
50 19 11
50 20 54
50 21 52
50 22 75
50 23 9
50 24 62
50 25 85
50 26 56
50 27 56
50 28 87
50 29 44
50 30 14
50 31 65
50 32 31
50 33 83
50 34 88
50 35 60
50 36 46
50 37 84
50 38 44
50 39 62
50 40 73
50 41 85
50 42 87
50 43 16
50 44 28
50 45 78
50 46 90
50 47 49
50 48 24
50 49 43
51 0 6
51 1 7
51 2 34
51 3 9
51 4 26
51 5 98
51 6 38
51 7 69
51 8 76
51 9 55
51 10 13
51 11 79
51 12 92
51 13 95
51 14 49
51 15 16
51 16 10
51 17 22
51 18 6
51 19 85
51 20 52
51 21 21
51 22 50
51 23 1
51 24 97
51 25 29
51 26 25
51 27 68
51 28 75
51 29 75
51 30 48
51 31 46
51 32 20
51 33 42
51 34 41
51 35 87
51 36 62
51 37 80
51 38 35
51 39 55
51 40 60
51 41 70
51 42 8
51 43 78
51 44 87
51 45 36
51 46 36
51 47 3
51 48 37
51 49 30
51 50 86
52 0 31
52 1 99
52 2 58
52 3 67
52 4 73
52 5 31
52 6 18
52 7 13
52 8 47
52 9 23
52 10 54
52 11 78
52 12 97
52 13 33
52 14 60
52 15 63
52 16 25
52 17 31
52 18 91
52 19 1
52 20 47
52 21 88
52 22 59
52 23 64
52 24 23
52 25 8
52 26 8
52 27 84
52 28 27
52 29 61
52 30 24
52 31 96
52 32 44
52 33 91
52 34 6
52 35 34
52 36 22
52 37 96
52 38 99
52 39 50
52 40 7
52 41 4
52 42 87
52 43 36
52 44 44
52 45 98
52 46 68
52 47 67
52 48 31
52 49 55
52 50 83
52 51 91
53 0 31
53 1 8
53 2 64
53 3 38
53 4 12
53 5 44
53 6 15
53 7 29
53 8 50
53 9 4
53 10 51
53 11 92
53 12 16
53 13 29
53 14 52
53 15 35
53 16 48
53 17 90
53 18 16
53 19 23
53 20 53
53 21 91
53 22 4
53 23 52
53 24 12
53 25 14
53 26 27
53 27 30
53 28 75
53 29 73
53 30 5
53 31 3
53 32 70
53 33 74
53 34 4
53 35 86
53 36 56
53 37 14
53 38 35
53 39 83
53 40 6
53 41 53
53 42 56
53 43 12
53 44 95
53 45 47
53 46 34
53 47 70
53 48 20
53 49 36
53 50 33
53 51 93
53 52 97
54 0 4
54 1 55
54 2 10
54 3 89
54 4 69
54 5 39
54 6 91
54 7 80
54 8 78
54 9 1
54 10 26
54 11 85
54 12 92
54 13 64
54 14 6
54 15 63
54 16 99
54 17 10
54 18 84
54 19 89
54 20 5
54 21 74
54 22 26
54 23 75
54 24 58
54 25 25
54 26 96
54 27 64
54 28 28
54 29 29
54 30 30
54 31 43
54 32 49
54 33 98
54 34 85
54 35 24
54 36 81
54 37 43
54 38 83
54 39 12
54 40 62
54 41 97
54 42 71
54 43 55
54 44 53
54 45 84
54 46 77
54 47 34
54 48 90
54 49 41
54 50 29
54 51 45
54 52 8
54 53 19
55 0 68
55 1 89
55 2 92
55 3 25
55 4 69
55 5 57
55 6 69
55 7 80
55 8 58
55 9 83
55 10 60
55 11 94
55 12 84
55 13 9
55 14 34
55 15 1
55 16 77
55 17 69
55 18 51
55 19 94
55 20 21
55 21 4
55 22 80
55 23 55
55 24 2
55 25 49
55 26 24
55 27 71
55 28 21
55 29 64
55 30 98
55 31 73
55 32 81
55 33 1
55 34 34
55 35 57
55 36 82
55 37 16
55 38 11
55 39 60
55 40 95
55 41 86
55 42 37
55 43 96
55 44 88
55 45 76
55 46 26
55 47 89
55 48 24
55 49 75
55 50 51
55 51 54
55 52 66
55 53 89
55 54 66
56 0 3
56 1 48
56 2 61
56 3 25
56 4 82
56 5 5
56 6 67
56 7 41
56 8 81
56 9 57
56 10 92
56 11 69
56 12 50
56 13 6
56 14 89
56 15 98
56 16 22
56 17 91
56 18 86
56 19 90
56 20 36
56 21 91
56 22 86
56 23 4
56 24 92
56 25 91
56 26 67
56 27 85
56 28 98
56 29 43
56 30 94
56 31 15
56 32 83
56 33 86
56 34 85
56 35 46
56 36 84
56 37 10
56 38 1
56 39 75
56 40 39
56 41 77
56 42 54
56 43 20
56 44 34
56 45 33
56 46 44
56 47 3
56 48 97
56 49 72
56 50 76
56 51 76
56 52 23
56 53 44
56 54 17
56 55 6
57 0 91
57 1 9
57 2 90
57 3 37
57 4 89
57 5 83
57 6 22
57 7 82
57 8 70
57 9 30
57 10 90
57 11 11
57 12 3
57 13 90
57 14 24
57 15 51
57 16 83
57 17 53
57 18 79
57 19 89
57 20 31
57 21 14
57 22 63
57 23 75
57 24 76
57 25 78
57 26 99
57 27 42
57 28 27
57 29 89
57 30 59
57 31 4
57 32 51
57 33 4
57 34 82
57 35 88
57 36 28
57 37 44
57 38 81
57 39 15
57 40 49
57 41 82
57 42 87
57 43 51
57 44 77
57 45 66
57 46 3
57 47 69
57 48 85
57 49 65
57 50 51
57 51 99
57 52 42
57 53 100
57 54 28
57 55 70
57 56 9
58 0 5
58 1 33
58 2 67
58 3 71
58 4 8
58 5 100
58 6 42
58 7 20
58 8 47
58 9 70
58 10 61
58 11 41
58 12 55
58 13 76
58 14 94
58 15 5
58 16 68
58 17 23
58 18 50
58 19 40
58 20 62
58 21 99
58 22 26
58 23 38
58 24 6
58 25 36
58 26 33
58 27 42
58 28 85
58 29 18
58 30 3
58 31 90
58 32 45
58 33 88
58 34 99
58 35 26
58 36 57
58 37 21
58 38 74
58 39 10
58 40 89
58 41 57
58 42 60
58 43 74
58 44 58
58 45 4
58 46 74
58 47 14
58 48 81
58 49 68
58 50 82
58 51 17
58 52 51
58 53 57
58 54 50
58 55 48
58 56 21
58 57 73
59 0 74
59 1 69
59 2 43
59 3 94
59 4 78
59 5 50
59 6 29
59 7 96
59 8 96
59 9 95
59 10 9
59 11 83
59 12 14
59 13 94
59 14 3
59 15 13
59 16 10
59 17 78
59 18 46
59 19 39
59 20 23
59 21 35
59 22 22
59 23 11
59 24 51
59 25 15
59 26 94
59 27 3
59 28 43
59 29 27
59 30 46
59 31 63
59 32 50
59 33 11
59 34 72
59 35 89
59 36 36
59 37 47
59 38 62
59 39 96
59 40 71
59 41 8
59 42 95
59 43 20
59 44 65
59 45 96
59 46 24
59 47 70
59 48 98
59 49 4
59 50 6
59 51 24
59 52 62
59 53 98
59 54 39
59 55 42
59 56 35
59 57 11
59 58 77
